100
128
6
8
2
11
15
45
1
1
28
6
29
4
9
2
1
4
4
33
8
15
29
9
6
23
57
2
2
8
35
8
22
3
28
18
10
1
18
27
2
5
59
2
45
46
60
10
40
7
56
2
14
49
23
31
64
4
5
61
2
40
42
61
46
2
60
13
53
47
34
39
41
41
11
64
8
1
45
7
43
60
56
4
47
2
3
5
7
16
6
43
48
3
48
12
32
10
38
40
64
64